peakDumbCharging = 14800; 
Machine = anon_enum(16); 
machineSpeed = [3700,3700,3700,3700,3700,3700,3700,3700,3700,3700,3700,3700,3700,3700,3700,3700]; 
machineLoad = [3700,3700,3700,3700,3700,3700,3700,3700,3700,3700,3700,3700,3700,3700,3700,3700]; 
Car = anon_enum(15); 
demandCar = [5320,8440,7640,12360,24640,6400,1880,6600,12680,13520,3000,3000,8520,32920,17960]; 
arrivalCar = [68,66,63,60,53,47,46,42,35,34,31,28,26,25,23]; 
departureCar = [73,71,68,65,74,50,48,45,45,43,34,31,30,47,60]; 
